numNurses = 197;
hours = 74;
demand = [40 36 38 18 37 34 27 18 37 45 40 13 11 9 5 40 5 33 27 33 26 0 3 30 3 15 19 42 47 2 31 44 7 21 31 44 39 12 2 30 37 47 48 37 22 25 16 11 44 43 43 31 7 9 0 40 44 7 31 11 31 46 18 14 11 32 27 33 13 26 20 20 6 36];
minHours = 15;
maxHours = 35;
maxConsec = 34;
maxPresence = 38;